DIMENSION: 6
NODE_COORD_SECTION
1 1224.7148288973 376.3907734057
2 -34.3297974928 1119.0476190476
3 112.2069523040 -1193.2515337423
4 1196.9325153374 789.0295358650
5 -1366.9201520913 35.0032530904
6 338.6339381003 -14.5183175034
EOF